Phonon calculation for Spinel
&INPUTPH
 tr2_ph = 1.0e-14,
 prefix = 'calcdir',
 amass(1) = 0,
 amass(2) = 0,
 amass(3) = 0,
 amass(4) = 0,
 outdir = 'calcdir',
 epsil = .true.,
 trans = .true.,
 fildyn = 'Lizardite.dyn',
/
0.0 0.0 0.0
