&CONTROL
  calculation = 'scf'
  restart_mode = 'from_scratch' ,
  outdir = 'calcdir' ,
  pseudo_dir = 'pseudo' ,
  prefix = 'calcdir' ,
  forc_conv_thr =   1.0000000000d-06
  tprnfor = .true.
  tstress = .true.
  verbosity = 'high'
/
&SYSTEM
  degauss =   1.4699723600d-02
  ecutrho =   4.8000000000d+02
  ecutwfc =   6.0000000000d+01
  ibrav = 0
  nat = 18
  nosym = .false.
  ntyp = 4
  occupations = 'fixed'
  smearing = 'cold'
/
&ELECTRONS
  conv_thr =   3.6000000000d-12
  electron_maxstep = 80
  mixing_beta =   4.0000000000d-01
/
&IONS
/
&CELL
  cell_dofree = 'ibrav',
/
ATOMIC_SPECIES
H      1.00794 H.pbesol-rrkjus_psl.1.0.0.UPF
Mg     24.305 Mg.pbesol-n-kjpaw_psl.0.3.0.UPF
O      15.9994 O.pbesol-n-kjpaw_psl.0.1.UPF
Si     28.0855 Si.pbesol-n-rrkjus_psl.1.0.0.UPF
ATOMIC_POSITIONS (crystal)
H             0.6481717783       -0.0000000000        0.7298636014
H             0.0000000000        0.6481717783        0.7298636014
H             0.3518282217        0.3518282217        0.7298636014
H             0.0000000000       -0.0000000000        0.1731245776
Mg            0.3307230397       -0.0000000000        0.4620819351
Mg           -0.0000000000        0.3307230397        0.4620819351
Mg            0.6692769603        0.6692769603        0.4620819351
O             0.3333333433        0.6666666865        0.2981821899
O             0.6666666865        0.3333333433        0.2981821899
O             0.5153347677        0.0000000000        0.9913856327
O             0.0000000000        0.5153347677        0.9913856327
O             0.4846652323        0.4846652323        0.9913856327
O             0.6644829053       -0.0000000000        0.5958276459
O            -0.0000000000        0.6644829053        0.5958276459
O             0.3355170947        0.3355170947        0.5958276459
O             0.0000000000       -0.0000000000        0.3070518045
Si            0.3333333433        0.6666666865        0.0768914115
Si            0.6666666865        0.3333333433        0.0768914115
K_POINTS automatic
2 2 2 0 0 0
CELL_PARAMETERS (angstrom)
   5.324018722  -0.000000000  -0.000000000
  -2.662009361   4.610735463   0.000000000
   0.000000000  -0.000000000   7.235935021

