
 &CONTROL
                 calculation = 'scf' ,
                restart_mode = 'from_scratch' ,
                      outdir = 'calcdir' ,
                  pseudo_dir = '../../pseudo' ,
                      prefix = 'forsteritexch' ,
                   verbosity = 'low' ,
                     tstress = .true. ,
                     tprnfor = .true. ,
 /
 &SYSTEM
                       ibrav = 8,
                   celldm(1) = 9.07045,
                   celldm(2) = 1.26129,
                   celldm(3) = 2.14397,
                        ntyp = 4,
                         nat = 28,
                        nbnd = 256, !192
                     ecutwfc = 45.0d0 ,
                     ecutrho = 160.0d0 ,
                 occupations = 'smearing',
                     degauss = 0.002,
                    smearing = 'gaussian'
 /
 &ELECTRONS
                    conv_thr = 1.0d-8,
                 mixing_mode = 'plain' ,
                 mixing_beta = 0.10d0 ,
             diagonalization = 'david' ,
 /
 &IONS
 /
 &CELL
                 cell_dofree = 'xyz' ,
 /
ATOMIC_SPECIES
   Mg   24.30505  Mg.pbe-spnl-kjpaw_psl.1.0.0.UPF 
   Si   28.08539  Si.pbe-nl-kjpaw_psl.1.0.0.UPF 
    O   15.99940  O.pbe-nl-kjpaw_psl.1.0.0.UPF 
   O_x  15.99940  O.pbe-nl-kjpaw_psl.1.0.0_1s1.UPF
   Fe    55.845   Fe.pbe-n-kjpaw_psl.1.0.0.UPF
ATOMIC_POSITIONS crystal 
Mg       0.000000002   0.000000001   0.999999995
Mg       0.500000008   0.999999996   0.500000001
Mg       0.500000004   0.499999999   0.500000005
Mg       0.999999998   0.499999996   0.999999995
Mg       0.008932684   0.750562928   0.276659247
Mg       0.991067306   0.249437057   0.723340744
Mg       0.508832337   0.249942846   0.223777143
Mg       0.491167653   0.750057155   0.776222857
O_1      0.234487139   0.750060114   0.092178307
O_2      0.765512868   0.249939874   0.907821682
O_3      0.734553923   0.249926562   0.407993796
O_4      0.265446095   0.750073423   0.592006205
O_5      0.221661378   0.249990848   0.553629754
O_6      0.778338650   0.750009158   0.446370248
O_7      0.278565481   0.250005435   0.053620799
O_8      0.721434527   0.749994560   0.946379198
O_9      0.276268757   0.033124562   0.836430730
O_10     0.723731249   0.966875462   0.163569266
O_11     0.223847610   0.033308260   0.336565771
O_12     0.776152364   0.966691736   0.663434239
O_13     0.223648139   0.466958046   0.336577112
O_14     0.776351884   0.533041955   0.663422881
O_15     0.723737939   0.533244684   0.163633311
O_16     0.276262055   0.466755334   0.836366678
Si       0.574012646   0.749990592   0.094031426
Si       0.425987357   0.250009432   0.905968566
Si       0.074011169   0.250121980   0.406058158
Si       0.925988830   0.749878032   0.593941846
K_POINTS automatic 
  1 1 1  0 0 0 

