&CONTROL  
    calculation   =  'nscf'           
    !restart_mode  =  'from_scratch' 
    outdir        =  'calcdir'     
    pseudo_dir    =  'pseudo'      
    prefix        =  'Mg2SiO4.V_1'        
    verbosity     =  'high'          
    tstress       =  .true.          
    tprnfor       =  .true.         
/
&SYSTEM  
    ibrav        =  8
    A            =  9.504
    B            =  10.193
    C            =  11.954
    nat          =  112
    ntyp         =  5
    ecutwfc      =  80.0
    ecutrho      =  700.0
    occupations  =  'smearing'
    degauss      =  0.03
    smearing     =  'gaussian'
    nbnd         =  1000
/
&ELECTRONS  
    mixing_beta  =  0.2
    startingpot = 'file'
/
&IONS
/
ATOMIC_SPECIES  
    Mg   24.305    Mg.pbe-spn-kjpaw_psl.1.0.0.UPF
    O    15.99940  O.pbe-n-kjpaw_psl.1.0.0.UPF
    Si   28.085    Si.pbe-nl-kjpaw_psl.1.0.0.UPF
    V    50.941    V.pbe-spn-kjpaw_psl.1.0.0.UPF
    V_x  50.941    V.pbe-spn-kjpaw_psl.1.0.0.1s1xch.UPF

ATOMIC_POSITIONS (crystal) 
V           0.0000000000        0.0000000000        0.0000000000
Mg           -0.0002388332       -0.0010221694        0.2495569046
Mg            0.2500001048        0.4999548377       -0.0000412697
Mg            0.2499905066        0.4999717417        0.2500868740
Mg            0.4957384873        0.2770991474        0.1250709070
Mg            0.2456688733        0.2234821909        0.3753025874
Mg            0.0042604547        0.7233043643        0.3750963472
Mg            0.2550046373        0.7752538865        0.1250695574
Mg            0.0000000000        0.0000000000        0.5000000000
Mg            0.5000000000        0.0000000000        0.0000000000
Mg            0.5000000000        0.0000000000        0.5000000000
Mg            0.2499997780        0.5000102001        0.5000040500
Mg            0.7499998952        0.5000451623        0.0000412697
Mg            0.7500002220        0.4999897999        0.4999959500
Mg            0.0002388332        0.0010221694        0.7504430954
Mg            0.5002052745       -0.0002006151        0.2502397783
Mg            0.4997947255        0.0002006151        0.7497602217
Mg            0.2500136142        0.5000086701        0.7499243262
Mg            0.7499863858        0.4999913299        0.2500756738
Mg            0.7500094934        0.5000282583        0.7499131260
Mg            0.4957352716        0.2766773623        0.6249204661
Mg            0.9954242961        0.2775964323        0.1252899321
Mg            0.9957395453        0.2766956357        0.6249036528
Mg            0.2452072326        0.2233727830        0.8741739022
Mg            0.7458370123        0.2234429324        0.3751802717
Mg            0.7449953627        0.2247461135        0.8749304426
Mg            0.0045757039        0.7224035677        0.8747100679
Mg            0.5042647284        0.7233226377        0.3750795339
Mg            0.5042615127        0.7229008526        0.8749290930
Mg            0.2541629877        0.7765570676        0.6248197283
Mg            0.7547927674        0.7766272170        0.1258260978
Mg            0.7543311267        0.7765178091        0.6246974126
O             0.3852867281        0.0927338086        0.1253153727
O             0.3840880643        0.0920097402        0.6249710375
O             0.8840049548        0.0942360098        0.1256542464
O             0.8840619114        0.0920780193        0.6251123677
O             0.1340099388        0.4079835828        0.3749775000
O             0.1339872830        0.4077972134        0.8750633414
O             0.6339820906        0.4079622330        0.3749669307
O             0.6338388687        0.4080674574        0.8750651289
O             0.1159380886        0.9079219807        0.3748876323
O             0.1159950452        0.9057639902        0.8743457536
O             0.6159119357        0.9079902598        0.3750289625
O             0.6147132719        0.9072661914        0.8746846273
O             0.3661611313        0.5919325426        0.1249348711
O             0.3660179094        0.5920377670        0.6250330693
O             0.8660127170        0.5922027866        0.1249366586
O             0.8659900612        0.5920164172        0.6250225000
O             0.1110955912        0.4459584080        0.1250283531
O             0.1109925176        0.4458402354        0.6250101108
O             0.6110528218        0.4459559761        0.1249509526
O             0.6110072672        0.4458678364        0.6250465086
O             0.3609477783        0.0541881145        0.3749424449
O             0.3604177324        0.0541607267        0.8751931259
O             0.8609549855        0.0541204898        0.3748622098
O             0.8575878815        0.0544192033        0.8741008517
O             0.3889927328        0.5541321636        0.3749534914
O             0.3889471782        0.5540440239        0.8750490474
O             0.8890074824        0.5541597646        0.3749898892
O             0.8889044088        0.5540415920        0.8749716469
O             0.1424121185        0.9455807967        0.1258991483
O             0.1390450145        0.9458795102        0.6251377902
O             0.6395822676        0.9458392733        0.1248068741
O             0.6390522217        0.9458118855        0.6250575551
O             0.1392071536        0.1642170107        0.0165418883
O             0.1378586225        0.1636092696        0.5156002279
O             0.6378259831        0.1636879424        0.0153836405
O             0.6378893809        0.1636713248        0.5157981291
O             0.3878617418        0.3362949071        0.4842431716
O             0.3876573126        0.3361314243        0.9842460611
O             0.8878731448        0.3362876988        0.4842621832
O             0.8877570114        0.3365557297        0.9843847255
O             0.3620951163        0.8363573016        0.2656958985
O             0.3619299158        0.8362848921        0.7657608010
O             0.8619908406        0.8361136623        0.2660999816
O             0.8626462084        0.8363758291        0.7653291465
O             0.1121977234        0.6637918325        0.2341767054
O             0.1122294483        0.6635559408        0.7341838028
O             0.6121477817        0.6637953014        0.2342598536
O             0.6121822765        0.6637587973        0.7342389271
O             0.3621106191        0.8363286752        0.4842018709
O             0.3621740169        0.8363120576        0.9846163595
O             0.8621413775        0.8363907304        0.4843997721
O             0.8607928464        0.8357829893        0.9834581117
O             0.1122429886        0.6634442703        0.0156152745
O             0.1121268552        0.6637123012        0.5157378168
O             0.6123426874        0.6638685757        0.0157539389
O             0.6121382582        0.6637050929        0.5157568284
O             0.1373537916        0.1636241709        0.2346708535
O             0.1380091594        0.1638863377        0.7339000184
O             0.6380700842        0.1637151079        0.2342391990
O             0.6379048837        0.1636426984        0.7343041015
O             0.3878177235        0.3362412027        0.2657610729
O             0.3878522183        0.3362046986        0.7657401464
O             0.8877705517        0.3364440592        0.2658161972
O             0.8878022766        0.3362081675        0.7658232946
Si            0.2147001943        0.0948367337        0.1262677055
Si            0.2133381346        0.0940169694        0.6247495117
Si            0.7125614467        0.0943558068        0.1247500132
Si            0.7132730414        0.0940598892        0.6250226966
Si            0.4632196631        0.4059102437        0.3749990243
Si            0.4630440859        0.4057892736        0.8750418592
Si            0.9632467527        0.4059499246        0.3750536078
Si            0.9632266967        0.4058047759        0.8750322057
Si            0.2867269586        0.9059401108        0.3749773034
Si            0.2874385533        0.9056441932        0.8752499868
Si            0.7866618654        0.9059830306        0.3752504883
Si            0.7852998057        0.9051632663        0.8737322945
Si            0.0367733033        0.5941952241        0.1249677943
Si            0.0367532473        0.5940500754        0.6249463922
Si            0.5369559141        0.5942107264        0.1249581408
Si            0.5367803369        0.5940897563        0.6250009757

K_POINTS crystal
1
  0.00000000  0.00000000  0.00000000  1.0 

