num_wann=23
num_bands=1000

wannier_plot=.true.
fermi_energy=10.3880
write_hr_diag=.true.
write_hr=.true.
write_rmn=.true.
write_tb=.true.

begin unit_cell_cart
angstrom
9.504  0.000  0.000
0.000 10.193  0.000
0.000  0.000 11.954
end unit_cell_cart

begin atoms_frac
Mg            0.0001481051       -0.0000322870        0.0000603085
Mg            0.0001481051       -0.0000322870        0.2499396915
Mg            0.2500778101        0.4998868661        0.0003232519
Mg            0.2500778101        0.4998868661        0.2496767481
V             0.4951889055        0.2721844533        0.1250000000
Mg            0.2452050400        0.2230193853        0.3757898313
Mg            0.0044998215        0.7233273627        0.3751036291
Mg            0.2538652854        0.7770791254        0.1250000000
Mg           -0.0000980542       -0.0000777630        0.5000237909
Mg            0.4999578222       -0.0019567415       -0.0004697718
Mg            0.4999260243        0.0000089215        0.5000403987
Mg            0.2497207350        0.5001483930        0.5000119484
Mg            0.7502549776        0.5002117550       -0.0001872353
Mg            0.7504329279        0.5003305852        0.5002142936
Mg           -0.0000980542       -0.0000777630        0.7499762091
Mg            0.4999578222       -0.0019567415        0.2504697718
Mg            0.4999260243        0.0000089215        0.7499596013
Mg            0.2497207350        0.5001483930        0.7499880516
Mg            0.7502549776        0.5002117550        0.2501872353
Mg            0.7504329279        0.5003305852        0.7497857064
Mg            0.4956148917        0.2765128268        0.6250000000
Mg            0.9954818891        0.2772987940        0.1250000000
Mg            0.9957267885        0.2766495808        0.6250000000
Mg            0.2452050400        0.2230193853        0.8742101687
Mg            0.7465061165        0.2239327132        0.3765362868
Mg            0.7465061165        0.2239327132        0.8734637132
Mg            0.0044998215        0.7233273627        0.8748963709
Mg            0.5043080922        0.7233260649        0.3752794688
Mg            0.5043080922        0.7233260649        0.8747205312
Mg            0.2543917035        0.7766832625        0.6250000000
Mg            0.7546562256        0.7768092380        0.1250000000
Mg            0.7543874507        0.7767383731        0.6250000000
O             0.3844899392        0.0887675834        0.1250000000
O             0.3839989621        0.0921097375        0.6250000000
O             0.8830275766        0.0931996221        0.1250000000
O             0.8840204504        0.0920788375        0.6250000000
O             0.1344010159        0.4077415213        0.3747333915
O             0.1344010159        0.4077415213        0.8752666085
O             0.6347697912        0.4083959779        0.3754255322
O             0.6347697912        0.4083959779        0.8745744678
O             0.1158160303        0.9080137321        0.3749844892
O             0.1158160303        0.9080137321        0.8750155108
O             0.6160049359        0.9077293327        0.3750042036
O             0.6160049359        0.9077293327        0.8749957964
O             0.3653606945        0.5927879837        0.1250000000
O             0.3659087726        0.5920340620        0.6250000000
O             0.8656228515        0.5919036840        0.1250000000
O             0.8659664553        0.5921787275        0.6250000000
O             0.1107309535        0.4460638973        0.1250000000
O             0.1107799417        0.4458626131        0.6250000000
O             0.6097546703        0.4453512920        0.1250000000
O             0.6109116680        0.4457747555        0.6250000000
O             0.3608633357        0.0541081195        0.3748200076
O             0.3608633357        0.0541081195        0.8751799924
O             0.8606060081        0.0542760414        0.3746570417
O             0.8606060081        0.0542760414        0.8753429583
O             0.3890684708        0.5539455707        0.3748588380
O             0.3890684708        0.5539455707        0.8751411620
O             0.8894446990        0.5541351981        0.3750292747
O             0.8894446990        0.5541351981        0.8749707253
O             0.1392812954        0.9469201142        0.1250000000
O             0.1390516987        0.9457767037        0.6250000000
O             0.6392354072        0.9469317526        0.1250000000
O             0.6390455920        0.9458308041        0.6250000000
O             0.1379819004        0.1643876190        0.0154973908
O             0.1376419149        0.1636313417        0.5158127689
O             0.6364393339        0.1643738789        0.0147443566
O             0.6377478587        0.1637670235        0.5158198656
O             0.3876607988        0.3364560710        0.4843928980
O             0.3893422317        0.3359242651        0.9837446073
O             0.8881612578        0.3362949226        0.4842583684
O             0.8876464708        0.3362306462        0.9841941780
O             0.3620538285        0.8359950062        0.2658374325
O             0.3621940779        0.8363554475        0.7657194407
O             0.8621765196        0.8363762618        0.2655569434
O             0.8622009776        0.8363947801        0.7657933150
O             0.1119332989        0.6638876976        0.2342683203
O             0.1121857290        0.6637027310        0.7342867365
O             0.6121622255        0.6634952498        0.2341039858
O             0.6121581696        0.6636045424        0.7342948638
O             0.3621940779        0.8363554475        0.4842805593
O             0.3620538285        0.8359950062        0.9841625675
O             0.8622009776        0.8363947801        0.4842066850
O             0.8621765196        0.8363762618        0.9844430566
O             0.1119332989        0.6638876976        0.0157316797
O             0.1121857290        0.6637027310        0.5157132635
O             0.6121622255        0.6634952498        0.0158960142
O             0.6121581696        0.6636045424        0.5157051362
O             0.1379819004        0.1643876190        0.2345026092
O             0.1376419149        0.1636313417        0.7341872311
O             0.6364393339        0.1643738789        0.2352556434
O             0.6377478587        0.1637670235        0.7341801344
O             0.3893422317        0.3359242651        0.2662553927
O             0.3876607988        0.3364560710        0.7656071020
O             0.8876464708        0.3362306462        0.2658058220
O             0.8881612578        0.3362949226        0.7657416316
Si            0.2131369437        0.0955719126        0.1250000000
Si            0.2132047573        0.0939798958        0.6250000000
Si            0.7125052964        0.0952254279        0.1250000000
Si            0.7132216652        0.0940255000        0.6250000000
Si            0.4642282099        0.4063559834        0.3760296059
Si            0.4642282099        0.4063559834        0.8739703941
Si            0.9635204371        0.4058835200        0.3748988447
Si            0.9635204371        0.4058835200        0.8751011553
Si            0.2865884760        0.9058103746        0.3750705091
Si            0.2865884760        0.9058103746        0.8749294909
Si            0.7868167398        0.9058179098        0.3749298068
Si            0.7868167398        0.9058179098        0.8750701932
Si            0.0365582146        0.5943340105        0.1250000000
Si            0.0367624676        0.5942021797        0.6250000000
Si            0.5358825187        0.5946231474        0.1250000000
Si            0.5367197446        0.5940780599        0.6250000000
end atoms_frac

begin projections
 V:d
 f=0.3893,0.3359,0.9837:p
 f=0.3845,0.0888,0.1250:p
 f=0.6098,0.4454,0.1250:p
 f=0.6364,0.1644,0.0147:p
 f=0.6364,0.1644,0.2353:p
 f=0.3893,0.3359,0.2663:p
end projections


mp_grid = 1 1 1
begin kpoints
  0.00000000  0.00000000  0.00000000  1.0 
end kpoints
