&CONTROL
                 calculation = 'scf' ,
                restart_mode = 'from_scratch' ,
                      outdir = 'calcdir' ,
                  pseudo_dir = 'pseudo' ,
                      prefix = 'calcdir' ,
                   verbosity = 'high' ,
                     tstress = .true. ,
                     tprnfor = .true. ,
/
&SYSTEM
                       ibrav = -5,
                   celldm(1) = 21.92,
                   celldm(4) = 0.5,
                        ntyp = 8,
                         nat = 112,
                     ecutwfc = 75,
                     ecutrho = 650 ,
                   input_dft = 'PBE' ,
                 occupations = 'smearing',
                     degauss = 0.010,
                    smearing = 'gaussian',
                        nbnd = 1000
/
&ELECTRONS
                    conv_thr = 1.0d-6 ,
                 mixing_mode = 'TF' ,
                 mixing_beta = 0.10d0 ,
                 mixing_ndim = 24,
             diagonalization = 'david' ,
/
&IONS
                ion_dynamics = 'bfgs',
 /
&CELL
                 cell_dofree = 'ibrav'
/
ATOMIC_SPECIES
  Mg    24.30505  Mg.pbe-spn-kjpaw_psl.1.0.0.UPF 
  FeT   24.30505  Fe.pbe-spn-kjpaw_psl.1.0.0.UPF 
  FeO   24.30505  Fe.pbe-spn-kjpaw_psl.1.0.0.UPF 
  Al    26.98154  Al.pbe-n-kjpaw_psl.1.0.0.UPF 
  Cr    26.98154  Cr.pbe-spn-kjpaw_psl.1.0.0.UPF 
  Ti    47.8671   Ti.pbe-spn-kjpaw_psl.1.0.0.UPF 
  O     15.99940  O.pbe-n-kjpaw_psl.1.0.0.UPF
  V_x   50.941    V.pbe-spn-kjpaw_psl.1.0.0.1s1xch.UPF
ATOMIC_POSITIONS (crystal)
Al       0.505158429  -0.000644248  -0.003338226
Cr      -0.014878361   0.484900016   0.000813893
Al       0.005151149   0.495773594   0.494366048
Cr      -0.002687149   0.023146381   0.496246695
Cr       0.515555648  -0.010767508   0.518893810
Cr       0.497860394   0.502519176  -0.006138265
Cr      -0.018659148   0.002406157  -0.012822077
Al       0.753048986   0.493891108   0.498460889
Cr       0.769861191   0.489420849   1.007487168
Al       0.253183544   1.001757720   0.990314923
Al       0.255913287  -0.003804392   0.507082153
Al       0.245585068   0.493877732   0.003345075
Cr       0.268578169   0.511720527   0.476402121
Cr       0.774171652   0.000429438  -0.009813496
Cr       0.722486739   0.983700072   0.520647679
Al       0.500759129   0.750467962   1.001500281
Cr       0.990768241   0.247751950   1.013557839
Cr      -0.000317456   0.222544832   0.515812200
Al       0.002275165   0.733938806   0.003805918
Al       0.999867622   0.759091886   0.493264082
Al       0.502667965   0.243362477   0.002249306
Al       0.497283060   0.251351895   0.499267421
Al       0.503611774   0.748809348   0.500015670
Ti       1.001582281   0.502581040   0.759485566
Cr       0.995732380   1.018405346   0.234310165
Cr      -0.011226348   0.009107760   0.764139729
Al       0.003112307   0.490303916   0.250762387
Cr       0.498000275   0.001710504   0.254299602
Cr       0.507230435   0.992780466   0.732957156
Cr       0.482327817   0.510505167   0.266698421
Cr       0.503387636   0.505538475   0.759827921
V_1      0.488099644   0.512042553   0.482494264
Mg       0.689287850   0.690038049   0.184952931
Mg       0.189697266   0.187020621   0.186852798
FeT      0.188332677   0.196406965   0.682079876
FeT      0.185231767   0.696303979   0.181681350
Mg       0.186175752   0.693880898   0.688402875
Mg       0.674565357   0.197203433   0.189009420
Mg       0.670934046   0.197586137   0.691363814
FeT      0.694716813   0.658762180   0.701612501
Mg       0.816798931   0.804490076   0.317595885
FeT      0.311250202   0.305636849   0.318051568
Mg       0.322241861   0.306537958   0.812550141
FeT      0.302034452   0.838784248   0.304588879
Mg       0.309574778   0.816439119   0.813406539
FeT      0.805142216   0.304825311   0.332211450
Mg       0.807164278   0.333031151   0.801508161
Mg       0.807211970   0.828987293   0.803730143
O        0.612961321   0.124931498   0.613760739
O        0.134490902   0.117434381   0.104988786
O        0.127702282   0.112882116   0.628187920
O        0.120284033   0.610910705   0.121841847
O        0.621720392   0.616648213   0.620098569
O        0.117473869   0.630014873   0.611190730
O        0.620051752   0.119468848   0.116380607
O        0.616230601   0.622968551   0.117094118
O        0.384163781   0.373014644   0.380282918
O        0.381884271   0.378065682   0.889040555
O        0.384914989   0.881063779   0.381114607
O        0.381605485   0.877831409   0.885037901
O        0.885266165   0.370985174   0.385567602
O        0.883137255   0.379187497   0.880023741
O        0.877514388   0.885891994   0.382980034
O        0.888182022   0.869392362   0.886316957
O        0.896274524   0.607863989   0.123061563
O        0.396903259   0.118728966   0.113100770
O        0.388096166   0.128456362   0.617583123
O        0.386967252   0.626885066   0.118559287
O        0.395132967   0.625129106   0.614426221
O        0.880490121   0.120695678   0.114597905
O        0.874141796   0.116801774   0.635011369
O        0.897439191   0.620251311   0.607412496
O        0.609559742   0.874095269   0.390288895
O        0.108266539   0.376087818   0.381066294
O        0.116861204   0.368359925   0.879265101
O        0.105787626   0.887360136   0.374779578
O        0.103530781   0.867850016   0.887199699
O        0.605404410   0.375859118   0.381478218
O        0.608579157   0.368111897   0.889176097
O        0.603872527   0.880671850   0.883019749
O        0.125039602   0.397369925   0.605587334
O        0.118144166   0.390089694   0.121367419
O        0.119190891   0.897279743   0.113712368
O        0.121099346   0.902023731   0.619659325
O        0.613862200   0.402422401   0.121984009
O        0.619471267   0.400230483   0.614089041
O        0.621689009   0.896902476   0.113315648
O        0.626743097   0.851512260   0.640176120
O        0.885735878   0.596064781   0.379663240
O        0.386158203   0.106166003   0.382670077
O        0.385972409   0.100868229   0.877188434
O        0.368164774   0.647297359   0.364312150
O        0.364832639   0.610275555   0.887718526
O        0.915446151   0.124632904   0.354654466
O        0.869804927   0.134091230   0.871890730
O        0.873285781   0.624024108   0.876913603
O        0.622900772   0.621872918   0.393953907
O        0.141134861   0.112282093   0.392652659
O        0.117785788   0.114327625   0.887763280
O        0.118325354   0.625480113   0.385604400
O        0.117711573   0.609154688   0.897596917
O        0.613643525   0.125275093   0.396841729
O        0.616649519   0.119015862   0.893880400
O        0.613044649   0.620807239   0.895893659
O        0.881913576   0.384358355   0.601443562
O        0.381226435   0.378183227   0.109985515
O        0.887984770   0.859521390   0.110664985
O        0.879983361   0.886829047   0.598222496
O        0.384831225   0.378354628   0.602698541
O        0.382309237   0.884081527   0.102885090
O        0.384267450   0.876918036   0.606016484
O        0.870866054   0.363792993   0.139026242

K_POINTS automatic 
 1 1 1   0 0 0 

